n = 50;
C = 6111;
w = [4,151,215,488,214,394,182,338,251,478,141,79,282,207,474,121,66,95,43,8,393,259,36,316,196,364,94,399,264,329,98,182,243,307,153,403,221,341,239,413,145,293,166,460,203,374,180,140,456,324];
p = [4,151,215,488,214,394,182,338,251,478,141,79,282,207,474,121,66,95,43,8,393,259,36,316,196,364,94,399,264,329,98,182,243,307,153,403,221,341,239,413,145,293,166,460,203,374,180,140,456,324];
